unknown
(model
; cardinality of BoundSet is 4
(declare-sort BoundSet 0)
; rep: @uc_BoundSet_0
; rep: @uc_BoundSet_1
; rep: @uc_BoundSet_2
; rep: @uc_BoundSet_3
; cardinality of UnboundSet is 1
(declare-sort UnboundSet 0)
(declare-fun groundTerm_5 () UnboundSet)
(define-fun IsInPineIslandBay ((BOUND_VARIABLE_490 BoundSet)) Bool true)
(define-fun AreFastestMelting ((BOUND_VARIABLE_490 BoundSet)) Bool true)
(define-fun IsInAntarctica ((BOUND_VARIABLE_490 BoundSet)) Bool true)
(define-fun IsMelt ((BOUND_VARIABLE_490 BoundSet)) Bool true)
(define-fun AreSubmerged ((BOUND_VARIABLE_490 BoundSet)) Bool false)
(define-fun IsOnPlanet ((BOUND_VARIABLE_490 BoundSet)) Bool false)
)
sat
(model
; cardinality of BoundSet is 1
(declare-sort BoundSet 0)
; rep: @uc_BoundSet_0
; cardinality of UnboundSet is 1
(declare-sort UnboundSet 0)
(declare-fun groundTerm_9 () UnboundSet)
(define-fun IsInPineIslandBay ((BOUND_VARIABLE_543 BoundSet)) Bool true)
(define-fun AreFastestMelting ((BOUND_VARIABLE_543 BoundSet)) Bool true)
(define-fun IsInAntarctica ((BOUND_VARIABLE_543 BoundSet)) Bool true)
(define-fun IsMelt ((BOUND_VARIABLE_543 BoundSet)) Bool true)
(define-fun AreSubmerged ((BOUND_VARIABLE_543 BoundSet)) Bool false)
(define-fun IsOnPlanet ((BOUND_VARIABLE_543 BoundSet)) Bool false)
)
